c "341097.clq"
p edge 150 584
e 1 5
e 1 6
e 1 7
e 1 9
e 1 15
e 1 23
e 1 37
e 1 39
e 1 78
e 2 5
e 3 5
e 3 6
e 4 5
e 4 6
e 4 7
e 4 8
e 4 10
e 4 12
e 4 14
e 4 15
e 4 16
e 4 20
e 4 21
e 4 25
e 4 30
e 4 32
e 4 35
e 4 36
e 4 40
e 4 42
e 4 44
e 4 48
e 4 55
e 4 58
e 4 61
e 4 62
e 4 64
e 4 65
e 4 69
e 4 72
e 4 73
e 4 76
e 4 80
e 4 84
e 4 85
e 4 96
e 4 102
e 4 106
e 4 109
e 4 120
e 4 127
e 4 142
e 5 6
e 5 7
e 5 8
e 5 9
e 5 10
e 5 11
e 5 12
e 5 13
e 5 18
e 5 28
e 5 32
e 5 34
e 5 37
e 5 41
e 5 43
e 5 57
e 5 58
e 5 63
e 5 67
e 5 69
e 5 70
e 5 73
e 5 77
e 5 81
e 5 85
e 5 86
e 5 93
e 5 97
e 5 109
e 5 110
e 5 112
e 5 116
e 5 118
e 5 119
e 5 120
e 5 131
e 5 133
e 5 134
e 5 137
e 5 142
e 5 144
e 5 146
e 6 7
e 6 8
e 6 14
e 6 17
e 6 18
e 6 27
e 6 28
e 6 31
e 6 50
e 6 54
e 6 79
e 6 84
e 6 92
e 6 95
e 6 102
e 6 105
e 6 116
e 6 140
e 7 8
e 7 9
e 7 10
e 7 11
e 7 12
e 7 17
e 7 25
e 7 26
e 7 27
e 7 32
e 7 34
e 7 39
e 7 52
e 7 58
e 7 63
e 7 81
e 7 88
e 7 89
e 7 93
e 7 100
e 7 103
e 7 110
e 7 133
e 7 138
e 7 141
e 7 142
e 8 9
e 8 10
e 8 11
e 8 13
e 8 14
e 8 18
e 8 19
e 8 21
e 8 22
e 8 29
e 8 33
e 8 35
e 8 42
e 8 46
e 8 48
e 8 52
e 8 53
e 8 68
e 8 69
e 8 75
e 8 81
e 8 88
e 8 95
e 8 115
e 8 131
e 9 12
e 9 13
e 9 15
e 9 19
e 9 22
e 9 26
e 9 34
e 9 40
e 9 61
e 9 62
e 9 68
e 9 72
e 9 84
e 9 87
e 9 111
e 9 122
e 10 11
e 10 14
e 10 16
e 10 20
e 10 21
e 10 22
e 10 24
e 10 30
e 10 31
e 10 34
e 10 45
e 10 51
e 10 56
e 10 64
e 10 71
e 10 94
e 10 95
e 10 119
e 10 129
e 10 149
e 11 17
e 11 18
e 11 19
e 11 31
e 11 33
e 11 36
e 11 40
e 11 51
e 11 53
e 11 61
e 11 67
e 11 75
e 11 80
e 11 88
e 11 132
e 12 13
e 12 15
e 12 17
e 12 20
e 12 22
e 12 23
e 12 26
e 12 31
e 12 35
e 12 38
e 12 43
e 12 44
e 12 48
e 12 53
e 12 59
e 12 71
e 12 83
e 12 97
e 12 106
e 12 113
e 12 125
e 12 128
e 13 16
e 13 23
e 13 24
e 13 25
e 13 26
e 13 33
e 13 41
e 13 42
e 13 46
e 13 53
e 13 59
e 13 78
e 13 99
e 13 128
e 13 132
e 13 136
e 14 16
e 14 57
e 14 113
e 14 115
e 14 117
e 14 122
e 15 27
e 15 29
e 15 38
e 15 43
e 15 55
e 15 60
e 15 89
e 15 96
e 15 138
e 16 30
e 16 54
e 16 61
e 16 105
e 16 123
e 16 127
e 16 147
e 17 19
e 17 33
e 17 37
e 17 44
e 17 46
e 17 49
e 17 77
e 17 105
e 17 120
e 17 121
e 18 32
e 18 38
e 18 41
e 18 45
e 18 49
e 18 57
e 18 63
e 18 66
e 18 72
e 18 74
e 18 75
e 18 78
e 18 82
e 18 98
e 18 124
e 18 150
e 19 20
e 19 21
e 19 28
e 19 54
e 19 65
e 19 72
e 19 86
e 19 92
e 19 108
e 19 121
e 19 145
e 19 147
e 20 30
e 21 24
e 21 27
e 21 42
e 21 49
e 21 50
e 21 56
e 21 58
e 21 67
e 21 98
e 21 102
e 21 129
e 22 23
e 22 24
e 22 45
e 22 70
e 22 79
e 22 94
e 22 107
e 22 128
e 23 25
e 23 35
e 23 38
e 23 55
e 23 84
e 23 91
e 23 103
e 23 110
e 23 126
e 23 130
e 23 137
e 24 29
e 24 64
e 24 114
e 24 138
e 25 29
e 25 39
e 25 47
e 26 28
e 26 36
e 26 50
e 26 77
e 26 113
e 26 121
e 27 39
e 28 40
e 28 47
e 28 56
e 28 66
e 28 117
e 29 43
e 29 48
e 29 60
e 29 66
e 29 104
e 29 123
e 30 56
e 30 57
e 30 59
e 30 74
e 30 95
e 30 97
e 30 109
e 30 117
e 30 128
e 31 37
e 31 41
e 31 47
e 31 118
e 32 67
e 32 89
e 32 97
e 33 77
e 33 107
e 33 108
e 33 116
e 33 143
e 34 55
e 34 59
e 34 69
e 34 92
e 34 96
e 34 135
e 35 36
e 35 45
e 35 89
e 35 111
e 35 135
e 36 51
e 37 44
e 37 51
e 37 64
e 37 71
e 37 73
e 37 144
e 38 50
e 38 54
e 38 150
e 39 63
e 39 65
e 39 83
e 39 104
e 39 135
e 39 148
e 40 141
e 41 47
e 41 81
e 41 90
e 42 46
e 42 52
e 42 62
e 42 86
e 42 106
e 44 139
e 44 145
e 45 68
e 45 79
e 45 83
e 45 125
e 46 101
e 46 108
e 47 60
e 47 94
e 48 49
e 48 74
e 48 91
e 48 123
e 49 76
e 49 93
e 49 122
e 50 79
e 50 91
e 50 99
e 50 108
e 51 52
e 51 82
e 51 94
e 51 99
e 51 139
e 51 144
e 52 70
e 52 80
e 52 126
e 52 131
e 52 135
e 52 148
e 53 115
e 53 141
e 54 107
e 54 119
e 55 76
e 55 90
e 55 101
e 55 129
e 57 66
e 57 82
e 57 86
e 57 96
e 57 109
e 58 70
e 59 60
e 59 65
e 59 87
e 59 93
e 59 103
e 59 114
e 59 134
e 59 148
e 60 62
e 61 73
e 61 85
e 61 112
e 61 120
e 61 146
e 63 90
e 63 100
e 63 144
e 65 71
e 65 101
e 65 105
e 65 112
e 65 123
e 65 124
e 65 140
e 67 68
e 67 87
e 67 100
e 67 118
e 68 125
e 68 126
e 69 116
e 70 74
e 70 83
e 70 149
e 71 100
e 72 115
e 72 143
e 73 85
e 73 143
e 74 75
e 74 76
e 74 78
e 74 90
e 74 91
e 74 102
e 74 106
e 74 130
e 74 133
e 74 134
e 76 88
e 77 80
e 77 82
e 77 87
e 77 98
e 77 112
e 77 117
e 78 137
e 78 149
e 79 99
e 79 101
e 80 147
e 81 111
e 81 130
e 82 107
e 84 130
e 85 132
e 86 132
e 86 139
e 88 150
e 90 92
e 91 114
e 91 121
e 92 104
e 92 139
e 95 98
e 95 134
e 95 136
e 96 113
e 98 103
e 100 111
e 100 124
e 100 136
e 100 140
e 102 110
e 103 104
e 107 146
e 108 114
e 108 124
e 108 127
e 108 142
e 109 118
e 111 138
e 113 131
e 114 126
e 115 141
e 117 119
e 117 146
e 118 145
e 118 149
e 119 125
e 119 129
e 119 143
e 119 145
e 121 122
e 121 127
e 121 137
e 123 140
e 123 147
e 127 148
e 131 133
e 133 136
e 134 150
